139
300
240	2
239	1
238	1
236	2
235	1
234	5
233	1
232	1
231	3
230	4
229	2
228	2
227	1
226	3
225	2
224	1
223	4
222	2
220	7
219	2
217	4
216	4
215	1
213	1
212	2
211	3
210	2
209	3
208	1
207	4
206	2
205	6
204	2
202	2
201	2
200	2
199	4
198	2
197	1
195	5
192	2
190	3
189	1
188	3
187	3
186	2
185	2
184	3
183	2
182	1
181	3
179	2
178	1
177	1
176	3
175	2
173	5
172	4
167	2
166	2
165	1
164	1
163	1
162	1
161	3
160	2
159	2
158	1
155	3
154	5
153	1
152	1
151	1
149	2
146	2
144	3
143	1
142	3
141	2
139	3
137	1
136	2
135	2
134	1
131	3
130	3
129	1
128	1
127	1
126	1
125	2
124	1
122	1
120	2
119	1
118	2
117	2
115	3
114	2
113	4
112	3
110	1
109	2
108	1
107	3
106	5
104	4
103	2
102	1
101	1
100	4
99	1
97	2
96	2
95	1
94	1
93	2
92	4
91	1
90	2
89	2
86	1
81	3
80	1
79	2
76	3
74	1
73	1
72	2
70	4
69	1
68	1
67	2
65	1
64	3
63	2
62	1
61	2
60	2
